20 5
 0 37  1 59  2 65  3 70  4 94 
 0 36  1 16  2 94  3  3  4 98 
 0  1  1 90  2 96  3 43  4 63 
 0  4  1  3  2 47  3 14  4 83 
 0 64  1 76  2 35  3 26  4 19 
 0 74  1 74  2 34  3 83  4 79 
 0 32  1 22  2 84  3 26  4 54 
 0 67  1 30  2  3  3 65  4 78 
 0 73  1 89  2 60  3 47  4 29 
 0  7  1 61  2 34  3 94  4  8 
 0 78  1 39  2 70  3 75  4 38 
 0 64  1 15  2 57  3 30  4 97 
 0 98  1 69  2  8  3  1  4 61 
 0 60  1 57  2 74  3 71  4 10 
 0 89  1  9  2 13  3 46  4 37 
 0 49  1 13  2 37  3 87  4 16 
 0  2  1 71  2 87  3 78  4 78 
 0 79  1  2  2 71  3 76  4 96 
 0 79  1 34  2 89  3 75  4  9 
 0 53  1 49  2 57  3 55  4 91 
